(set-logic QF_SLID_LC)

(declare-sort RefSll_t 0)

(declare-fun next() (Field RefSll_t RefSll_t))

(define-fun ls ((in RefSll_t) (out RefSll_t)) Space (tospace
    (or (and  (= in out) (tobool emp) )
        (exists ((u RefSll_t))
            (and (tobool (ssep (pto in (ref next u)) (ls u out ) )) )
)  ) ) )

;; variables
(declare-fun x0() RefSll_t)
(declare-fun x1() RefSll_t)
(declare-fun x2() RefSll_t)
(declare-fun x3() RefSll_t)
(declare-fun x4() RefSll_t)
(declare-fun x5() RefSll_t)
(declare-fun x6() RefSll_t)
(declare-fun x7() RefSll_t)
(declare-fun x8() RefSll_t)
(declare-fun x9() RefSll_t)
(declare-fun x10() RefSll_t)
(declare-fun x11() RefSll_t)
(declare-fun x12() RefSll_t)
(declare-fun x13() RefSll_t)
(declare-fun x14() RefSll_t)
(declare-fun x15() RefSll_t)
(declare-fun x16() RefSll_t)
(declare-fun x17() RefSll_t)
(declare-fun x18() RefSll_t)
(declare-fun x19() RefSll_t)
(declare-fun x20() RefSll_t)
(declare-fun x21() RefSll_t)

(assert 
		(and 

			(distinct x6 x11)
			(distinct x6 x13)
			(distinct x11 x17)
			(distinct x11 x12)
			(distinct x3 x11)
			(distinct x3 x14)
			(distinct x9 x11)
			(distinct x2 x11)
			(distinct x2 x7)
			(distinct x2 x16)
			(distinct x2 x13)
			(distinct x2 x12)
			(distinct x14 x16)
			(distinct x1 x6)
			(distinct x1 x16)
			(distinct x4 x6)
			(distinct x4 x15)
			(distinct x5 x14)
		(tobool (ssep 
			(ls x10 x5 )
			(ls x10 x9 )
			(ls x13 x10 )
			(ls x4 x17 )
			(ls x8 x12 )
			(ls x15 x12 )
			(ls x15 x17 )
			(ls x15 x13 )
			(ls x14 x9 )
			(ls x12 x7 )
			(ls x12 x4 )
			(ls x2 x4 )
			(ls x7 x15 )
			(ls x3 x14 )
			(ls x3 x1 )
			(ls x11 x3 )
			(ls x6 x17 )
		)

		)

) )

(check-sat)
;   sat